p cnf 179 397
81 -14 12 -11 0
-81 14 0
-81 -12 0
-81 11 0
82 -41 39 -38 0
-82 41 0
-82 -39 0
-82 38 0
83 -54 52 -51 0
-83 54 0
-83 -52 0
-83 51 0
84 -1 0
-84 1 0
85 -68 66 -65 0
-85 68 0
-85 -66 0
-85 65 0
86 -21 19 -18 0
-86 21 0
-86 -19 0
-86 18 0
87 -8 7 -6 0
-87 8 0
-87 -7 0
-87 6 0
88 -30 28 -27 0
-88 30 0
-88 -28 0
-88 27 0
-2 81 82 83 84 85 86 87 88 0
2 -81 0
2 -82 0
2 -83 0
2 -84 0
2 -85 0
2 -86 0
2 -87 0
2 -88 0
89 -19 -18 0
-89 19 0
-89 18 0
90 -39 -38 0
-90 39 0
-90 38 0
91 -3 -2 0
-91 3 0
-91 2 0
92 -7 -6 0
-92 7 0
-92 6 0
93 -52 -51 0
-93 52 0
-93 51 0
94 -28 -27 0
-94 28 0
-94 27 0
95 -12 -11 0
-95 12 0
-95 11 0
96 -66 -65 0
-96 66 0
-96 65 0
-4 89 90 91 92 93 94 95 96 0
4 -89 0
4 -90 0
4 -91 0
4 -92 0
4 -93 0
4 -94 0
4 -95 0
4 -96 0
97 -5 0
-97 5 0
98 -43 40 -38 0
-98 43 0
-98 -40 0
-98 38 0
99 -70 67 -65 0
-99 70 0
-99 -67 0
-99 65 0
100 -23 20 -18 0
-100 23 0
-100 -20 0
-100 18 0
101 -16 13 -11 0
-101 16 0
-101 -13 0
-101 11 0
102 -32 29 -27 0
-102 32 0
-102 -29 0
-102 27 0
103 -56 53 -51 0
-103 56 0
-103 -53 0
-103 51 0
-6 97 98 99 100 101 102 103 0
6 -97 0
6 -98 0
6 -99 0
6 -100 0
6 -101 0
6 -102 0
6 -103 0
104 -8 0
-104 8 0
105 -7 0
-105 7 0
-9 104 105 0
9 -104 0
9 -105 0
106 -72 69 -65 0
-106 72 0
-106 -69 0
-106 65 0
107 -34 31 -27 0
-107 34 0
-107 -31 0
-107 27 0
108 -58 55 -51 0
-108 58 0
-108 -55 0
-108 51 0
109 -10 0
-109 10 0
110 -45 42 -38 0
-110 45 0
-110 -42 0
-110 38 0
111 -25 22 -18 0
-111 25 0
-111 -22 0
-111 18 0
-11 106 107 108 109 110 111 0
11 -106 0
11 -107 0
11 -108 0
11 -109 0
11 -110 0
11 -111 0
112 -12 0
-112 12 0
113 -14 0
-113 14 0
-13 112 113 0
13 -112 0
13 -113 0
114 -13 0
-114 13 0
115 -16 0
-115 16 0
-15 114 115 0
15 -114 0
15 -115 0
116 -74 71 -65 0
-116 74 0
-116 -71 0
-116 65 0
117 -17 0
-117 17 0
118 -60 57 -51 0
-118 60 0
-118 -57 0
-118 51 0
119 -35 33 -27 0
-119 35 0
-119 -33 0
-119 27 0
120 -47 44 -38 0
-120 47 0
-120 -44 0
-120 38 0
-18 116 117 118 119 120 0
18 -116 0
18 -117 0
18 -118 0
18 -119 0
18 -120 0
121 -19 0
-121 19 0
122 -21 0
-122 21 0
-20 121 122 0
20 -121 0
20 -122 0
123 -23 0
-123 23 0
124 -20 0
-124 20 0
-22 123 124 0
22 -123 0
22 -124 0
125 -22 0
-125 22 0
126 -25 0
-126 25 0
-24 125 126 0
24 -125 0
24 -126 0
127 -62 59 -51 0
-127 62 0
-127 -59 0
-127 51 0
128 -26 0
-128 26 0
129 -48 46 -38 0
-129 48 0
-129 -46 0
-129 38 0
130 -76 73 -65 0
-130 76 0
-130 -73 0
-130 65 0
-27 127 128 129 130 0
27 -127 0
27 -128 0
27 -129 0
27 -130 0
131 -28 0
-131 28 0
132 -30 0
-132 30 0
-29 131 132 0
29 -131 0
29 -132 0
133 -32 0
-133 32 0
134 -29 0
-134 29 0
-31 133 134 0
31 -133 0
31 -134 0
135 -31 0
-135 31 0
136 -34 0
-136 34 0
-33 135 136 0
33 -135 0
33 -136 0
137 -35 0
-137 35 0
138 -33 0
-138 33 0
-36 137 138 0
36 -137 0
36 -138 0
139 -37 0
-139 37 0
140 -78 75 -65 0
-140 78 0
-140 -75 0
-140 65 0
141 -63 61 -51 0
-141 63 0
-141 -61 0
-141 51 0
-38 139 140 141 0
38 -139 0
38 -140 0
38 -141 0
142 -39 0
-142 39 0
143 -41 0
-143 41 0
-40 142 143 0
40 -142 0
40 -143 0
144 -40 0
-144 40 0
145 -43 0
-145 43 0
-42 144 145 0
42 -144 0
42 -145 0
146 -45 0
-146 45 0
147 -42 0
-147 42 0
-44 146 147 0
44 -146 0
44 -147 0
148 -47 0
-148 47 0
149 -44 0
-149 44 0
-46 148 149 0
46 -148 0
46 -149 0
150 -46 0
-150 46 0
151 -48 0
-151 48 0
-49 150 151 0
49 -150 0
49 -151 0
152 -79 77 -65 0
-152 79 0
-152 -77 0
-152 65 0
153 -50 0
-153 50 0
-51 152 153 0
51 -152 0
51 -153 0
154 -54 0
-154 54 0
155 -52 0
-155 52 0
-53 154 155 0
53 -154 0
53 -155 0
156 -53 0
-156 53 0
157 -56 0
-157 56 0
-55 156 157 0
55 -156 0
55 -157 0
158 -55 0
-158 55 0
159 -58 0
-159 58 0
-57 158 159 0
57 -158 0
57 -159 0
160 -60 0
-160 60 0
161 -57 0
-161 57 0
-59 160 161 0
59 -160 0
59 -161 0
162 -62 0
-162 62 0
163 -59 0
-163 59 0
-61 162 163 0
61 -162 0
61 -163 0
164 -61 0
-164 61 0
165 -63 0
-165 63 0
-64 164 165 0
64 -164 0
64 -165 0
166 -66 0
-166 66 0
167 -68 0
-167 68 0
-67 166 167 0
67 -166 0
67 -167 0
168 -70 0
-168 70 0
169 -67 0
-169 67 0
-69 168 169 0
69 -168 0
69 -169 0
170 -72 0
-170 72 0
171 -69 0
-171 69 0
-71 170 171 0
71 -170 0
71 -171 0
172 -74 0
-172 74 0
173 -71 0
-173 71 0
-73 172 173 0
73 -172 0
73 -173 0
174 -76 0
-174 76 0
175 -73 0
-175 73 0
-75 174 175 0
75 -174 0
75 -175 0
176 -75 0
-176 75 0
177 -78 0
-177 78 0
-77 176 177 0
77 -176 0
77 -177 0
178 -77 0
-178 77 0
179 -79 0
-179 79 0
-80 178 179 0
80 -178 0
80 -179 0
c p weight 1 0.5 0
c p weight -1 0.5 0
c p weight 2 1.0 0
c p weight -2 1.0 0
c p weight 3 1.0 0
c p weight -3 0.0 0
c p weight 4 1.0 0
c p weight -4 0.0 0
c p weight 5 0.5 0
c p weight -5 0.5 0
c p weight 6 1.0 0
c p weight -6 1.0 0
c p weight 7 0.5 0
c p weight -7 0.5 0
c p weight 8 1.0 0
c p weight -8 0.0 0
c p weight 9 1.0 0
c p weight -9 1.0 0
c p weight 10 0.5 0
c p weight -10 0.5 0
c p weight 11 1.0 0
c p weight -11 1.0 0
c p weight 12 0.3333333333333333 0
c p weight -12 0.6666666666666667 0
c p weight 13 1.0 0
c p weight -13 1.0 0
c p weight 14 0.49999999999999994 0
c p weight -14 0.5 0
c p weight 15 1.0 0
c p weight -15 1.0 0
c p weight 16 0.9999999999999997 0
c p weight -16 3.3306690738754696e-16 0
c p weight 17 0.5 0
c p weight -17 0.5 0
c p weight 18 1.0 0
c p weight -18 1.0 0
c p weight 19 0.25 0
c p weight -19 0.75 0
c p weight 20 1.0 0
c p weight -20 1.0 0
c p weight 21 0.3333333333333333 0
c p weight -21 0.6666666666666667 0
c p weight 22 1.0 0
c p weight -22 1.0 0
c p weight 23 0.5 0
c p weight -23 0.5 0
c p weight 24 1.0 0
c p weight -24 1.0 0
c p weight 25 1.0 0
c p weight -25 0.0 0
c p weight 26 0.5 0
c p weight -26 0.5 0
c p weight 27 1.0 0
c p weight -27 1.0 0
c p weight 28 0.2 0
c p weight -28 0.8 0
c p weight 29 1.0 0
c p weight -29 1.0 0
c p weight 30 0.25 0
c p weight -30 0.75 0
c p weight 31 1.0 0
c p weight -31 1.0 0
c p weight 32 0.3333333333333333 0
c p weight -32 0.6666666666666667 0
c p weight 33 1.0 0
c p weight -33 1.0 0
c p weight 34 0.49999999999999994 0
c p weight -34 0.5 0
c p weight 35 0.9999999999999998 0
c p weight -35 2.220446049250313e-16 0
c p weight 36 1.0 0
c p weight -36 1.0 0
c p weight 37 0.5 0
c p weight -37 0.5 0
c p weight 38 1.0 0
c p weight -38 1.0 0
c p weight 39 0.16666666666666666 0
c p weight -39 0.8333333333333334 0
c p weight 40 1.0 0
c p weight -40 1.0 0
c p weight 41 0.19999999999999998 0
c p weight -41 0.8 0
c p weight 42 1.0 0
c p weight -42 1.0 0
c p weight 43 0.24999999999999997 0
c p weight -43 0.75 0
c p weight 44 1.0 0
c p weight -44 1.0 0
c p weight 45 0.33333333333333326 0
c p weight -45 0.6666666666666667 0
c p weight 46 1.0 0
c p weight -46 1.0 0
c p weight 47 0.4999999999999998 0
c p weight -47 0.5000000000000002 0
c p weight 48 0.999999999999999 0
c p weight -48 9.992007221626409e-16 0
c p weight 49 1.0 0
c p weight -49 1.0 0
c p weight 50 0.5 0
c p weight -50 0.5 0
c p weight 51 1.0 0
c p weight -51 1.0 0
c p weight 52 0.14285714285714285 0
c p weight -52 0.8571428571428572 0
c p weight 53 1.0 0
c p weight -53 1.0 0
c p weight 54 0.16666666666666666 0
c p weight -54 0.8333333333333334 0
c p weight 55 1.0 0
c p weight -55 1.0 0
c p weight 56 0.19999999999999996 0
c p weight -56 0.8 0
c p weight 57 1.0 0
c p weight -57 1.0 0
c p weight 58 0.24999999999999992 0
c p weight -58 0.7500000000000001 0
c p weight 59 1.0 0
c p weight -59 1.0 0
c p weight 60 0.33333333333333315 0
c p weight -60 0.6666666666666669 0
c p weight 61 1.0 0
c p weight -61 1.0 0
c p weight 62 0.4999999999999996 0
c p weight -62 0.5000000000000004 0
c p weight 63 0.9999999999999984 0
c p weight -63 1.5543122344752192e-15 0
c p weight 64 1.0 0
c p weight -64 1.0 0
c p weight 65 0.5 0
c p weight -65 0.5 0
c p weight 66 0.125 0
c p weight -66 0.875 0
c p weight 67 1.0 0
c p weight -67 1.0 0
c p weight 68 0.14285714285714285 0
c p weight -68 0.8571428571428572 0
c p weight 69 1.0 0
c p weight -69 1.0 0
c p weight 70 0.16666666666666666 0
c p weight -70 0.8333333333333334 0
c p weight 71 1.0 0
c p weight -71 1.0 0
c p weight 72 0.2 0
c p weight -72 0.8 0
c p weight 73 1.0 0
c p weight -73 1.0 0
c p weight 74 0.25 0
c p weight -74 0.75 0
c p weight 75 1.0 0
c p weight -75 1.0 0
c p weight 76 0.3333333333333333 0
c p weight -76 0.6666666666666667 0
c p weight 77 1.0 0
c p weight -77 1.0 0
c p weight 78 0.5 0
c p weight -78 0.5 0
c p weight 79 1.0 0
c p weight -79 0.0 0
c p weight 80 1.0 0
c p weight -80 1.0 0
c p weight 81 1.0 0
c p weight -81 1.0 0
c p weight 82 1.0 0
c p weight -82 1.0 0
c p weight 83 1.0 0
c p weight -83 1.0 0
c p weight 84 1.0 0
c p weight -84 1.0 0
c p weight 85 1.0 0
c p weight -85 1.0 0
c p weight 86 1.0 0
c p weight -86 1.0 0
c p weight 87 1.0 0
c p weight -87 1.0 0
c p weight 88 1.0 0
c p weight -88 1.0 0
c p weight 89 1.0 0
c p weight -89 1.0 0
c p weight 90 1.0 0
c p weight -90 1.0 0
c p weight 91 1.0 0
c p weight -91 1.0 0
c p weight 92 1.0 0
c p weight -92 1.0 0
c p weight 93 1.0 0
c p weight -93 1.0 0
c p weight 94 1.0 0
c p weight -94 1.0 0
c p weight 95 1.0 0
c p weight -95 1.0 0
c p weight 96 1.0 0
c p weight -96 1.0 0
c p weight 97 1.0 0
c p weight -97 1.0 0
c p weight 98 1.0 0
c p weight -98 1.0 0
c p weight 99 1.0 0
c p weight -99 1.0 0
c p weight 100 1.0 0
c p weight -100 1.0 0
c p weight 101 1.0 0
c p weight -101 1.0 0
c p weight 102 1.0 0
c p weight -102 1.0 0
c p weight 103 1.0 0
c p weight -103 1.0 0
c p weight 104 1.0 0
c p weight -104 1.0 0
c p weight 105 1.0 0
c p weight -105 1.0 0
c p weight 106 1.0 0
c p weight -106 1.0 0
c p weight 107 1.0 0
c p weight -107 1.0 0
c p weight 108 1.0 0
c p weight -108 1.0 0
c p weight 109 1.0 0
c p weight -109 1.0 0
c p weight 110 1.0 0
c p weight -110 1.0 0
c p weight 111 1.0 0
c p weight -111 1.0 0
c p weight 112 1.0 0
c p weight -112 1.0 0
c p weight 113 1.0 0
c p weight -113 1.0 0
c p weight 114 1.0 0
c p weight -114 1.0 0
c p weight 115 1.0 0
c p weight -115 1.0 0
c p weight 116 1.0 0
c p weight -116 1.0 0
c p weight 117 1.0 0
c p weight -117 1.0 0
c p weight 118 1.0 0
c p weight -118 1.0 0
c p weight 119 1.0 0
c p weight -119 1.0 0
c p weight 120 1.0 0
c p weight -120 1.0 0
c p weight 121 1.0 0
c p weight -121 1.0 0
c p weight 122 1.0 0
c p weight -122 1.0 0
c p weight 123 1.0 0
c p weight -123 1.0 0
c p weight 124 1.0 0
c p weight -124 1.0 0
c p weight 125 1.0 0
c p weight -125 1.0 0
c p weight 126 1.0 0
c p weight -126 1.0 0
c p weight 127 1.0 0
c p weight -127 1.0 0
c p weight 128 1.0 0
c p weight -128 1.0 0
c p weight 129 1.0 0
c p weight -129 1.0 0
c p weight 130 1.0 0
c p weight -130 1.0 0
c p weight 131 1.0 0
c p weight -131 1.0 0
c p weight 132 1.0 0
c p weight -132 1.0 0
c p weight 133 1.0 0
c p weight -133 1.0 0
c p weight 134 1.0 0
c p weight -134 1.0 0
c p weight 135 1.0 0
c p weight -135 1.0 0
c p weight 136 1.0 0
c p weight -136 1.0 0
c p weight 137 1.0 0
c p weight -137 1.0 0
c p weight 138 1.0 0
c p weight -138 1.0 0
c p weight 139 1.0 0
c p weight -139 1.0 0
c p weight 140 1.0 0
c p weight -140 1.0 0
c p weight 141 1.0 0
c p weight -141 1.0 0
c p weight 142 1.0 0
c p weight -142 1.0 0
c p weight 143 1.0 0
c p weight -143 1.0 0
c p weight 144 1.0 0
c p weight -144 1.0 0
c p weight 145 1.0 0
c p weight -145 1.0 0
c p weight 146 1.0 0
c p weight -146 1.0 0
c p weight 147 1.0 0
c p weight -147 1.0 0
c p weight 148 1.0 0
c p weight -148 1.0 0
c p weight 149 1.0 0
c p weight -149 1.0 0
c p weight 150 1.0 0
c p weight -150 1.0 0
c p weight 151 1.0 0
c p weight -151 1.0 0
c p weight 152 1.0 0
c p weight -152 1.0 0
c p weight 153 1.0 0
c p weight -153 1.0 0
c p weight 154 1.0 0
c p weight -154 1.0 0
c p weight 155 1.0 0
c p weight -155 1.0 0
c p weight 156 1.0 0
c p weight -156 1.0 0
c p weight 157 1.0 0
c p weight -157 1.0 0
c p weight 158 1.0 0
c p weight -158 1.0 0
c p weight 159 1.0 0
c p weight -159 1.0 0
c p weight 160 1.0 0
c p weight -160 1.0 0
c p weight 161 1.0 0
c p weight -161 1.0 0
c p weight 162 1.0 0
c p weight -162 1.0 0
c p weight 163 1.0 0
c p weight -163 1.0 0
c p weight 164 1.0 0
c p weight -164 1.0 0
c p weight 165 1.0 0
c p weight -165 1.0 0
c p weight 166 1.0 0
c p weight -166 1.0 0
c p weight 167 1.0 0
c p weight -167 1.0 0
c p weight 168 1.0 0
c p weight -168 1.0 0
c p weight 169 1.0 0
c p weight -169 1.0 0
c p weight 170 1.0 0
c p weight -170 1.0 0
c p weight 171 1.0 0
c p weight -171 1.0 0
c p weight 172 1.0 0
c p weight -172 1.0 0
c p weight 173 1.0 0
c p weight -173 1.0 0
c p weight 174 1.0 0
c p weight -174 1.0 0
c p weight 175 1.0 0
c p weight -175 1.0 0
c p weight 176 1.0 0
c p weight -176 1.0 0
c p weight 177 1.0 0
c p weight -177 1.0 0
c p weight 178 1.0 0
c p weight -178 1.0 0
c p weight 179 1.0 0
c p weight -179 1.0 0
c p semirings aspmc.semirings.probabilistic 0
c p quantify 1 2 3 4 5 6 7 8 9 10 11 12 13 14 15 16 17 18 19 20 21 22 23 24 25 26 27 28 29 30 31 32 33 34 35 36 37 38 39 40 41 42 43 44 45 46 47 48 49 50 51 52 53 54 55 56 57 58 59 60 61 62 63 64 65 66 67 68 69 70 71 72 73 74 75 76 77 78 79 80 81 82 83 84 85 86 87 88 89 90 91 92 93 94 95 96 97 98 99 100 101 102 103 104 105 106 107 108 109 110 111 112 113 114 115 116 117 118 119 120 121 122 123 124 125 126 127 128 129 130 131 132 133 134 135 136 137 138 139 140 141 142 143 144 145 146 147 148 149 150 151 152 153 154 155 156 157 158 159 160 161 162 163 164 165 166 167 168 169 170 171 172 173 174 175 176 177 178 179 0
c p auxilliary 2 6 9 11 13 15 18 20 22 24 27 29 31 33 36 38 40 42 44 46 49 51 53 55 57 59 61 64 67 69 71 73 75 77 80 81 82 83 84 85 86 87 88 89 90 91 92 93 94 95 96 97 98 99 100 101 102 103 104 105 106 107 108 109 110 111 112 113 114 115 116 117 118 119 120 121 122 123 124 125 126 127 128 129 130 131 132 133 134 135 136 137 138 139 140 141 142 143 144 145 146 147 148 149 150 151 152 153 154 155 156 157 158 159 160 161 162 163 164 165 166 167 168 169 170 171 172 173 174 175 176 177 178 179 0
